% Generated by MiniZinc 2.9.3
% Solver library: /home/icwmmarijnisse/Pumpkin/minizinc/lib
% Command line invocation: minizinc --compile --fzn ./instance.fzn --ozn ./instance.ozn --solver pumpkin ../../../../benchmarks/models/rcpsp/rcpsp_smaller.mzn ../../../../benchmarks/models/rcpsp/small_pack024.dzn 

predicate pumpkin_cumulative(array [int] of var int: s,array [int] of int: d,array [int] of int: r,int: b);
array [1..2] of int: X_INTRODUCED_26_ = [1,-1];
var 0..30: X_INTRODUCED_16_;
var 0..30: X_INTRODUCED_17_;
var 0..30: X_INTRODUCED_18_;
var 0..30: X_INTRODUCED_19_;
var 0..30: X_INTRODUCED_20_;
var 0..30: X_INTRODUCED_21_;
var 0..30: X_INTRODUCED_22_;
var 0..31: Objective:: output_var;
array [1..7] of var int: Start:: output_array([1..7]) = [X_INTRODUCED_16_,X_INTRODUCED_17_,X_INTRODUCED_18_,X_INTRODUCED_19_,X_INTRODUCED_20_,X_INTRODUCED_21_,X_INTRODUCED_22_];
array [1..6] of var int: X_INTRODUCED_30_ ::var_is_introduced  = [X_INTRODUCED_16_,X_INTRODUCED_17_,X_INTRODUCED_18_,X_INTRODUCED_19_,X_INTRODUCED_20_,X_INTRODUCED_21_];
array [1..7] of var int: X_INTRODUCED_36_ ::var_is_introduced  = [X_INTRODUCED_16_,X_INTRODUCED_17_,X_INTRODUCED_18_,X_INTRODUCED_19_,X_INTRODUCED_20_,X_INTRODUCED_21_,Objective];
constraint int_lin_le(X_INTRODUCED_26_,[X_INTRODUCED_16_,X_INTRODUCED_18_],-2);
constraint int_lin_le(X_INTRODUCED_26_,[X_INTRODUCED_16_,X_INTRODUCED_19_],-2);
constraint int_lin_le(X_INTRODUCED_26_,[X_INTRODUCED_16_,X_INTRODUCED_20_],-2);
constraint int_lin_le(X_INTRODUCED_26_,[X_INTRODUCED_18_,X_INTRODUCED_19_],-2);
constraint pumpkin_cumulative(X_INTRODUCED_30_,[2,4,2,6,2,5],[2,2,3,2,3,1],5);
constraint pumpkin_cumulative(X_INTRODUCED_30_,[2,4,2,6,2,5],[3,3,1,2,2,3],8);
constraint int_lin_le(X_INTRODUCED_26_,[X_INTRODUCED_17_,Objective],-4);
constraint int_lin_le(X_INTRODUCED_26_,[X_INTRODUCED_19_,Objective],-6);
constraint int_lin_le(X_INTRODUCED_26_,[X_INTRODUCED_20_,Objective],-2);
constraint int_lin_le(X_INTRODUCED_26_,[X_INTRODUCED_21_,Objective],-5);
solve :: int_search(X_INTRODUCED_36_,smallest,indomain_min,complete) minimize Objective;
